(set-info :source |printed by MathSAT|)
(declare-fun call_voiture.toofast () Bool)
(declare-fun call_Sofar.flby () Bool)
(declare-fun env () Bool)
(declare-fun call_voiture.flby2 () Bool)
(declare-fun bump () Bool)
(declare-fun call_voiture.ite3 () Int)
(declare-fun call_voiture.flby6 () Int)
(declare-fun meter () Bool)
(declare-fun time () Int)
(declare-fun call_excludes2.excludes () Bool)
(declare-fun toofast () Bool)
(declare-fun call_voiture.dist () Int)
(declare-fun call_voiture.flby () Bool)
(declare-fun call_voiture.time () Int)
(declare-fun _OK_ () Bool)
(declare-fun speed () Int)
(declare-fun move () Bool)
(declare-fun call_voiture.bump () Bool)
(declare-fun call_voiture.flby4 () Int)
(declare-fun call_voiture.meter () Bool)
(declare-fun call_voiture.flby5 () Int)
(declare-fun call_voiture.speed () Int)
(declare-fun dist () Int)
(declare-fun call_voiture.move () Bool)
(declare-fun call_Sofar.Sofar () Bool)
(declare-fun call_voiture.stop () Bool)
(declare-fun second () Bool)
(declare-fun call_voiture.flby3 () Bool)
(declare-fun call_voiture.second () Bool)
(declare-fun stop () Bool)
(declare-fun param_m () Bool)
(declare-fun param_s () Bool)
(declare-fun call_voiture.ite2 () Int)
(define-fun .def_376 () Bool (= call_excludes2.excludes call_Sofar.flby))
(define-fun .def_374 () Bool (= call_voiture.flby6 0))
(define-fun .def_372 () Bool (= call_voiture.flby5 0))
(define-fun .def_370 () Bool (= call_voiture.flby4 0))
(define-fun .def_367 () Bool (not call_voiture.flby2))
(define-fun .def_366 () Bool (not call_voiture.flby))
(define-fun .def_368 () Bool (and .def_366 .def_367))
(define-fun .def_369 () Bool (and call_voiture.flby3 .def_368))
(define-fun .def_371 () Bool (and .def_369 .def_370))
(define-fun .def_373 () Bool (and .def_371 .def_372))
(define-fun .def_375 () Bool (and .def_373 .def_374))
(define-fun .def_377 () Bool (and .def_375 .def_376))
(define-fun .def_364 () Bool (= call_Sofar.Sofar call_Sofar.flby))
(define-fun .def_358 () Bool (and param_s param_m))
(define-fun .def_359 () Bool (not .def_358))
(define-fun .def_361 () Bool (= .def_359 call_excludes2.excludes))
(define-fun .def_354 () Bool (= call_voiture.meter call_voiture.flby))
(define-fun .def_351 () Bool (= call_voiture.second call_voiture.flby2))
(define-fun .def_347 () Bool (= call_voiture.move call_voiture.flby3))
(define-fun .def_343 () Bool (= call_voiture.ite3 0))
(define-fun .def_339 () Bool (not call_voiture.move))
(define-fun .def_340 () Bool (or call_voiture.second .def_339))
(define-fun .def_342 () Bool (not .def_340))
(define-fun .def_344 () Bool (or .def_342 .def_343))
(define-fun .def_338 () Bool (= call_voiture.ite2 call_voiture.ite3))
(define-fun .def_341 () Bool (or .def_338 .def_340))
(define-fun .def_345 () Bool (and .def_341 .def_344))
(define-fun .def_348 () Bool (and .def_345 .def_347))
(define-fun .def_334 () Bool (= call_voiture.time call_voiture.flby6))
(define-fun .def_331 () Bool (= call_voiture.speed call_voiture.flby5))
(define-fun .def_328 () Bool (= call_voiture.dist call_voiture.flby4))
(define-fun .def_324 () Bool (= call_voiture.dist 10))
(define-fun .def_325 () Bool (= call_voiture.bump .def_324))
(define-fun .def_321 () Bool (<= 4 call_voiture.time))
(define-fun .def_322 () Bool (= call_voiture.stop .def_321))
(define-fun .def_318 () Bool (<= 3 call_voiture.speed))
(define-fun .def_319 () Bool (= call_voiture.toofast .def_318))
(define-fun .def_316 () Bool (= env call_Sofar.Sofar))
(define-fun .def_313 () Bool (= meter call_voiture.meter))
(define-fun .def_309 () Bool (= second call_voiture.second))
(define-fun .def_305 () Bool (= move call_voiture.move))
(define-fun .def_301 () Bool (= time call_voiture.time))
(define-fun .def_297 () Bool (= speed call_voiture.speed))
(define-fun .def_293 () Bool (= dist call_voiture.dist))
(define-fun .def_290 () Bool (= bump call_voiture.bump))
(define-fun .def_286 () Bool (= stop call_voiture.stop))
(define-fun .def_282 () Bool (= toofast call_voiture.toofast))
(define-fun .def_276 () Bool (<= 11 dist))
(define-fun .def_277 () Bool (not .def_276))
(define-fun .def_274 () Bool (not env))
(define-fun .def_278 () Bool (or .def_274 .def_277))
(define-fun .def_279 () Bool (= _OK_ .def_278))
(define-fun .def_283 () Bool (and .def_279 .def_282))
(define-fun .def_287 () Bool (and .def_283 .def_286))
(define-fun .def_291 () Bool (and .def_287 .def_290))
(define-fun .def_294 () Bool (and .def_291 .def_293))
(define-fun .def_298 () Bool (and .def_294 .def_297))
(define-fun .def_302 () Bool (and .def_298 .def_301))
(define-fun .def_306 () Bool (and .def_302 .def_305))
(define-fun .def_310 () Bool (and .def_306 .def_309))
(define-fun .def_314 () Bool (and .def_310 .def_313))
(define-fun .def_317 () Bool (and .def_314 .def_316))
(define-fun .def_320 () Bool (and .def_317 .def_319))
(define-fun .def_323 () Bool (and .def_320 .def_322))
(define-fun .def_326 () Bool (and .def_323 .def_325))
(define-fun .def_329 () Bool (and .def_326 .def_328))
(define-fun .def_332 () Bool (and .def_329 .def_331))
(define-fun .def_335 () Bool (and .def_332 .def_334))
(define-fun .def_349 () Bool (and .def_335 .def_348))
(define-fun .def_352 () Bool (and .def_349 .def_351))
(define-fun .def_355 () Bool (and .def_352 .def_354))
(define-fun .def_362 () Bool (and .def_355 .def_361))
(define-fun .def_365 () Bool (and .def_362 .def_364))
(define-fun .def_378 () Bool (and .def_365 .def_377))
(assert .def_378)
